************************************************************************
file with basedata            : mm39_.bas
initial value random generator: 567586810
************************************************************************
projects                      :  1
jobs (incl. supersource/sink ):  12
horizon                       :  78
RESOURCES
  - renewable                 :  2   R
  - nonrenewable              :  2   N
  - doubly constrained        :  0   D
************************************************************************
PROJECT INFORMATION:
pronr.  #jobs rel.date duedate tardcost  MPM-Time
    1     10      0       22        4       22
************************************************************************
PRECEDENCE RELATIONS:
jobnr.    #modes  #successors   successors
   1        1          3           2   3   4
   2        3          2           5   6
   3        3          1          10
   4        3          2           6   9
   5        3          3           8  10  11
   6        3          1           7
   7        3          2          10  11
   8        3          1           9
   9        3          1          12
  10        3          1          12
  11        3          1          12
  12        1          0        
************************************************************************
REQUESTS/DURATIONS:
jobnr. mode duration  R 1  R 2  N 1  N 2
------------------------------------------------------------------------
  1      1     0       0    0    0    0
  2      1     1       3    6   10    5
         2     1       3    6    7    7
         3     2       3    6    5    2
  3      1     1       9    5    8    4
         2     7       7    5    7    4
         3    10       3    3    5    2
  4      1    10       6    8    6    7
         2    10       4   10    6    8
         3    10       6    6    9    7
  5      1     1       7   10   10    9
         2     4       6   10   10    7
         3     5       4   10   10    5
  6      1     2       9    9    6   10
         2    10       8    4    6    9
         3    10       7    5    4    9
  7      1     8      10    8    8   10
         2     9       6    7    7    7
         3    10       5    6    5    1
  8      1     5       8    5    6    9
         2    10       7    4    4    7
         3    10       7    2    3    8
  9      1     4       3    7    6    7
         2     7       3    3    5    6
         3     8       3    1    5    6
 10      1     1       3    8    5    7
         2     7       2    8    3    5
         3     7       3    8    3    4
 11      1     2       6    6    7    8
         2     5       6    5    5    7
         3     6       2    4    4    7
 12      1     0       0    0    0    0
************************************************************************
RESOURCEAVAILABILITIES:
  R 1  R 2  N 1  N 2
    9   12   68   70
************************************************************************
MAXIMAL LAGS:
from  to  type  delay
    1   12   ES      0
    1    2   ES      0
    2   12   ES      0
    1    3   ES      0
    3   12   ES      0
    1    4   ES      0
    4   12   ES      0
    1    5   ES      0
    5   12   ES      0
    1    6   ES      0
    6   12   ES      0
    1    7   ES      0
    7   12   ES      0
    1    8   ES      0
    8   12   ES      0
    1    9   ES      0
    9   12   ES      0
    1   10   ES      0
   10   12   ES      0
    1   11   ES      0
   11   12   ES      0
    1   12   ES      0
    2    5   SS     11
    2    5   SE      7
    2    5   ES    -10
    2    5   EE     -1
    2    6   SS      1
    2    6   SE      3
    2    6   ES      9
    2    6   EE     10
    3   10   SS     -9
    3   10   SE     11
   10    3   SE      0
    3   10   ES      0
    3   10   EE     -3
    4    6   SS      7
    4    6   SE     -6
    4    6   ES     10
    4    6   EE     -8
    4    9   SS      4
    4    9   SE      6
    4    9   ES     10
    4    9   EE      4
    5    8   SS    -11
    5    8   SE     -8
    5    8   ES      3
    5    8   EE    -10
    5   10   SS     -3
    5   10   SE      9
    5   10   ES      5
    5   10   EE      2
    5   11   SS     -7
    5   11   SE      2
    5   11   ES     -9
    5   11   EE      3
    6    7   SS      9
    6    7   SE      5
    6    7   ES     -5
    6    7   EE     -5
    7   10   SS     -6
    7   10   SE     -7
    7   10   ES     12
    7   10   EE      9
    7   11   SS     10
    7   11   SE    -10
    7   11   ES     -9
    7   11   EE      1
    8    9   SS     10
    8    9   SE    -12
    8    9   ES     -7
    8    9   EE     -2
************************************************************************
